c File: flat200_3_0.col
c
c SOURCE: Joseph Culberson (joe@cs.ualberta.ca)
c DESCRIPTION: Quasi-random coloring problem
c              generated with flatness = 0
c                             probability = 0.036
c                             known coloring = 3
c                             random seed = 1019
c              Creation Date:  Wed Feb 24 10:39:39 1999
c Maximum degree = 8 Minimum degree = 0
c COLOR VERIFICATION: Using the permuted order
c under simple greedy yields the specified
c coloring number
c Color = 3 specified partitions = 3
c p edge 200 479
c cnf created by edge2cnf
p cnf 600 2237
-1 -2 0
-1 -3 0
-2 -3 0
1 2 3 0
-4 -5 0
-4 -6 0
-5 -6 0
4 5 6 0
-7 -8 0
-7 -9 0
-8 -9 0
7 8 9 0
-10 -11 0
-10 -12 0
-11 -12 0
10 11 12 0
-13 -14 0
-13 -15 0
-14 -15 0
13 14 15 0
-16 -17 0
-16 -18 0
-17 -18 0
16 17 18 0
-19 -20 0
-19 -21 0
-20 -21 0
19 20 21 0
-22 -23 0
-22 -24 0
-23 -24 0
22 23 24 0
-25 -26 0
-25 -27 0
-26 -27 0
25 26 27 0
-28 -29 0
-28 -30 0
-29 -30 0
28 29 30 0
-31 -32 0
-31 -33 0
-32 -33 0
31 32 33 0
-34 -35 0
-34 -36 0
-35 -36 0
34 35 36 0
-37 -38 0
-37 -39 0
-38 -39 0
37 38 39 0
-40 -41 0
-40 -42 0
-41 -42 0
40 41 42 0
-43 -44 0
-43 -45 0
-44 -45 0
43 44 45 0
-46 -47 0
-46 -48 0
-47 -48 0
46 47 48 0
-49 -50 0
-49 -51 0
-50 -51 0
49 50 51 0
-52 -53 0
-52 -54 0
-53 -54 0
52 53 54 0
-55 -56 0
-55 -57 0
-56 -57 0
55 56 57 0
-58 -59 0
-58 -60 0
-59 -60 0
58 59 60 0
-61 -62 0
-61 -63 0
-62 -63 0
61 62 63 0
-64 -65 0
-64 -66 0
-65 -66 0
64 65 66 0
-67 -68 0
-67 -69 0
-68 -69 0
67 68 69 0
-70 -71 0
-70 -72 0
-71 -72 0
70 71 72 0
-73 -74 0
-73 -75 0
-74 -75 0
73 74 75 0
-76 -77 0
-76 -78 0
-77 -78 0
76 77 78 0
-79 -80 0
-79 -81 0
-80 -81 0
79 80 81 0
-82 -83 0
-82 -84 0
-83 -84 0
82 83 84 0
-85 -86 0
-85 -87 0
-86 -87 0
85 86 87 0
-88 -89 0
-88 -90 0
-89 -90 0
88 89 90 0
-91 -92 0
-91 -93 0
-92 -93 0
91 92 93 0
-94 -95 0
-94 -96 0
-95 -96 0
94 95 96 0
-97 -98 0
-97 -99 0
-98 -99 0
97 98 99 0
-100 -101 0
-100 -102 0
-101 -102 0
100 101 102 0
-103 -104 0
-103 -105 0
-104 -105 0
103 104 105 0
-106 -107 0
-106 -108 0
-107 -108 0
106 107 108 0
-109 -110 0
-109 -111 0
-110 -111 0
109 110 111 0
-112 -113 0
-112 -114 0
-113 -114 0
112 113 114 0
-115 -116 0
-115 -117 0
-116 -117 0
115 116 117 0
-118 -119 0
-118 -120 0
-119 -120 0
118 119 120 0
-121 -122 0
-121 -123 0
-122 -123 0
121 122 123 0
-124 -125 0
-124 -126 0
-125 -126 0
124 125 126 0
-127 -128 0
-127 -129 0
-128 -129 0
127 128 129 0
-130 -131 0
-130 -132 0
-131 -132 0
130 131 132 0
-133 -134 0
-133 -135 0
-134 -135 0
133 134 135 0
-136 -137 0
-136 -138 0
-137 -138 0
136 137 138 0
-139 -140 0
-139 -141 0
-140 -141 0
139 140 141 0
-142 -143 0
-142 -144 0
-143 -144 0
142 143 144 0
-145 -146 0
-145 -147 0
-146 -147 0
145 146 147 0
-148 -149 0
-148 -150 0
-149 -150 0
148 149 150 0
-151 -152 0
-151 -153 0
-152 -153 0
151 152 153 0
-154 -155 0
-154 -156 0
-155 -156 0
154 155 156 0
-157 -158 0
-157 -159 0
-158 -159 0
157 158 159 0
-160 -161 0
-160 -162 0
-161 -162 0
160 161 162 0
-163 -164 0
-163 -165 0
-164 -165 0
163 164 165 0
-166 -167 0
-166 -168 0
-167 -168 0
166 167 168 0
-169 -170 0
-169 -171 0
-170 -171 0
169 170 171 0
-172 -173 0
-172 -174 0
-173 -174 0
172 173 174 0
-175 -176 0
-175 -177 0
-176 -177 0
175 176 177 0
-178 -179 0
-178 -180 0
-179 -180 0
178 179 180 0
-181 -182 0
-181 -183 0
-182 -183 0
181 182 183 0
-184 -185 0
-184 -186 0
-185 -186 0
184 185 186 0
-187 -188 0
-187 -189 0
-188 -189 0
187 188 189 0
-190 -191 0
-190 -192 0
-191 -192 0
190 191 192 0
-193 -194 0
-193 -195 0
-194 -195 0
193 194 195 0
-196 -197 0
-196 -198 0
-197 -198 0
196 197 198 0
-199 -200 0
-199 -201 0
-200 -201 0
199 200 201 0
-202 -203 0
-202 -204 0
-203 -204 0
202 203 204 0
-205 -206 0
-205 -207 0
-206 -207 0
205 206 207 0
-208 -209 0
-208 -210 0
-209 -210 0
208 209 210 0
-211 -212 0
-211 -213 0
-212 -213 0
211 212 213 0
-214 -215 0
-214 -216 0
-215 -216 0
214 215 216 0
-217 -218 0
-217 -219 0
-218 -219 0
217 218 219 0
-220 -221 0
-220 -222 0
-221 -222 0
220 221 222 0
-223 -224 0
-223 -225 0
-224 -225 0
223 224 225 0
-226 -227 0
-226 -228 0
-227 -228 0
226 227 228 0
-229 -230 0
-229 -231 0
-230 -231 0
229 230 231 0
-232 -233 0
-232 -234 0
-233 -234 0
232 233 234 0
-235 -236 0
-235 -237 0
-236 -237 0
235 236 237 0
-238 -239 0
-238 -240 0
-239 -240 0
238 239 240 0
-241 -242 0
-241 -243 0
-242 -243 0
241 242 243 0
-244 -245 0
-244 -246 0
-245 -246 0
244 245 246 0
-247 -248 0
-247 -249 0
-248 -249 0
247 248 249 0
-250 -251 0
-250 -252 0
-251 -252 0
250 251 252 0
-253 -254 0
-253 -255 0
-254 -255 0
253 254 255 0
-256 -257 0
-256 -258 0
-257 -258 0
256 257 258 0
-259 -260 0
-259 -261 0
-260 -261 0
259 260 261 0
-262 -263 0
-262 -264 0
-263 -264 0
262 263 264 0
-265 -266 0
-265 -267 0
-266 -267 0
265 266 267 0
-268 -269 0
-268 -270 0
-269 -270 0
268 269 270 0
-271 -272 0
-271 -273 0
-272 -273 0
271 272 273 0
-274 -275 0
-274 -276 0
-275 -276 0
274 275 276 0
-277 -278 0
-277 -279 0
-278 -279 0
277 278 279 0
-280 -281 0
-280 -282 0
-281 -282 0
280 281 282 0
-283 -284 0
-283 -285 0
-284 -285 0
283 284 285 0
-286 -287 0
-286 -288 0
-287 -288 0
286 287 288 0
-289 -290 0
-289 -291 0
-290 -291 0
289 290 291 0
-292 -293 0
-292 -294 0
-293 -294 0
292 293 294 0
-295 -296 0
-295 -297 0
-296 -297 0
295 296 297 0
-298 -299 0
-298 -300 0
-299 -300 0
298 299 300 0
-301 -302 0
-301 -303 0
-302 -303 0
301 302 303 0
-304 -305 0
-304 -306 0
-305 -306 0
304 305 306 0
-307 -308 0
-307 -309 0
-308 -309 0
307 308 309 0
-310 -311 0
-310 -312 0
-311 -312 0
310 311 312 0
-313 -314 0
-313 -315 0
-314 -315 0
313 314 315 0
-316 -317 0
-316 -318 0
-317 -318 0
316 317 318 0
-319 -320 0
-319 -321 0
-320 -321 0
319 320 321 0
-322 -323 0
-322 -324 0
-323 -324 0
322 323 324 0
-325 -326 0
-325 -327 0
-326 -327 0
325 326 327 0
-328 -329 0
-328 -330 0
-329 -330 0
328 329 330 0
-331 -332 0
-331 -333 0
-332 -333 0
331 332 333 0
-334 -335 0
-334 -336 0
-335 -336 0
334 335 336 0
-337 -338 0
-337 -339 0
-338 -339 0
337 338 339 0
-340 -341 0
-340 -342 0
-341 -342 0
340 341 342 0
-343 -344 0
-343 -345 0
-344 -345 0
343 344 345 0
-346 -347 0
-346 -348 0
-347 -348 0
346 347 348 0
-349 -350 0
-349 -351 0
-350 -351 0
349 350 351 0
-352 -353 0
-352 -354 0
-353 -354 0
352 353 354 0
-355 -356 0
-355 -357 0
-356 -357 0
355 356 357 0
-358 -359 0
-358 -360 0
-359 -360 0
358 359 360 0
-361 -362 0
-361 -363 0
-362 -363 0
361 362 363 0
-364 -365 0
-364 -366 0
-365 -366 0
364 365 366 0
-367 -368 0
-367 -369 0
-368 -369 0
367 368 369 0
-370 -371 0
-370 -372 0
-371 -372 0
370 371 372 0
-373 -374 0
-373 -375 0
-374 -375 0
373 374 375 0
-376 -377 0
-376 -378 0
-377 -378 0
376 377 378 0
-379 -380 0
-379 -381 0
-380 -381 0
379 380 381 0
-382 -383 0
-382 -384 0
-383 -384 0
382 383 384 0
-385 -386 0
-385 -387 0
-386 -387 0
385 386 387 0
-388 -389 0
-388 -390 0
-389 -390 0
388 389 390 0
-391 -392 0
-391 -393 0
-392 -393 0
391 392 393 0
-394 -395 0
-394 -396 0
-395 -396 0
394 395 396 0
-397 -398 0
-397 -399 0
-398 -399 0
397 398 399 0
-400 -401 0
-400 -402 0
-401 -402 0
400 401 402 0
-403 -404 0
-403 -405 0
-404 -405 0
403 404 405 0
-406 -407 0
-406 -408 0
-407 -408 0
406 407 408 0
-409 -410 0
-409 -411 0
-410 -411 0
409 410 411 0
-412 -413 0
-412 -414 0
-413 -414 0
412 413 414 0
-415 -416 0
-415 -417 0
-416 -417 0
415 416 417 0
-418 -419 0
-418 -420 0
-419 -420 0
418 419 420 0
-421 -422 0
-421 -423 0
-422 -423 0
421 422 423 0
-424 -425 0
-424 -426 0
-425 -426 0
424 425 426 0
-427 -428 0
-427 -429 0
-428 -429 0
427 428 429 0
-430 -431 0
-430 -432 0
-431 -432 0
430 431 432 0
-433 -434 0
-433 -435 0
-434 -435 0
433 434 435 0
-436 -437 0
-436 -438 0
-437 -438 0
436 437 438 0
-439 -440 0
-439 -441 0
-440 -441 0
439 440 441 0
-442 -443 0
-442 -444 0
-443 -444 0
442 443 444 0
-445 -446 0
-445 -447 0
-446 -447 0
445 446 447 0
-448 -449 0
-448 -450 0
-449 -450 0
448 449 450 0
-451 -452 0
-451 -453 0
-452 -453 0
451 452 453 0
-454 -455 0
-454 -456 0
-455 -456 0
454 455 456 0
-457 -458 0
-457 -459 0
-458 -459 0
457 458 459 0
-460 -461 0
-460 -462 0
-461 -462 0
460 461 462 0
-463 -464 0
-463 -465 0
-464 -465 0
463 464 465 0
-466 -467 0
-466 -468 0
-467 -468 0
466 467 468 0
-469 -470 0
-469 -471 0
-470 -471 0
469 470 471 0
-472 -473 0
-472 -474 0
-473 -474 0
472 473 474 0
-475 -476 0
-475 -477 0
-476 -477 0
475 476 477 0
-478 -479 0
-478 -480 0
-479 -480 0
478 479 480 0
-481 -482 0
-481 -483 0
-482 -483 0
481 482 483 0
-484 -485 0
-484 -486 0
-485 -486 0
484 485 486 0
-487 -488 0
-487 -489 0
-488 -489 0
487 488 489 0
-490 -491 0
-490 -492 0
-491 -492 0
490 491 492 0
-493 -494 0
-493 -495 0
-494 -495 0
493 494 495 0
-496 -497 0
-496 -498 0
-497 -498 0
496 497 498 0
-499 -500 0
-499 -501 0
-500 -501 0
499 500 501 0
-502 -503 0
-502 -504 0
-503 -504 0
502 503 504 0
-505 -506 0
-505 -507 0
-506 -507 0
505 506 507 0
-508 -509 0
-508 -510 0
-509 -510 0
508 509 510 0
-511 -512 0
-511 -513 0
-512 -513 0
511 512 513 0
-514 -515 0
-514 -516 0
-515 -516 0
514 515 516 0
-517 -518 0
-517 -519 0
-518 -519 0
517 518 519 0
-520 -521 0
-520 -522 0
-521 -522 0
520 521 522 0
-523 -524 0
-523 -525 0
-524 -525 0
523 524 525 0
-526 -527 0
-526 -528 0
-527 -528 0
526 527 528 0
-529 -530 0
-529 -531 0
-530 -531 0
529 530 531 0
-532 -533 0
-532 -534 0
-533 -534 0
532 533 534 0
-535 -536 0
-535 -537 0
-536 -537 0
535 536 537 0
-538 -539 0
-538 -540 0
-539 -540 0
538 539 540 0
-541 -542 0
-541 -543 0
-542 -543 0
541 542 543 0
-544 -545 0
-544 -546 0
-545 -546 0
544 545 546 0
-547 -548 0
-547 -549 0
-548 -549 0
547 548 549 0
-550 -551 0
-550 -552 0
-551 -552 0
550 551 552 0
-553 -554 0
-553 -555 0
-554 -555 0
553 554 555 0
-556 -557 0
-556 -558 0
-557 -558 0
556 557 558 0
-559 -560 0
-559 -561 0
-560 -561 0
559 560 561 0
-562 -563 0
-562 -564 0
-563 -564 0
562 563 564 0
-565 -566 0
-565 -567 0
-566 -567 0
565 566 567 0
-568 -569 0
-568 -570 0
-569 -570 0
568 569 570 0
-571 -572 0
-571 -573 0
-572 -573 0
571 572 573 0
-574 -575 0
-574 -576 0
-575 -576 0
574 575 576 0
-577 -578 0
-577 -579 0
-578 -579 0
577 578 579 0
-580 -581 0
-580 -582 0
-581 -582 0
580 581 582 0
-583 -584 0
-583 -585 0
-584 -585 0
583 584 585 0
-586 -587 0
-586 -588 0
-587 -588 0
586 587 588 0
-589 -590 0
-589 -591 0
-590 -591 0
589 590 591 0
-592 -593 0
-592 -594 0
-593 -594 0
592 593 594 0
-595 -596 0
-595 -597 0
-596 -597 0
595 596 597 0
-598 -599 0
-598 -600 0
-599 -600 0
598 599 600 0
-28 -1 0
-29 -2 0
-30 -3 0
-232 -1 0
-233 -2 0
-234 -3 0
-262 -1 0
-263 -2 0
-264 -3 0
-400 -1 0
-401 -2 0
-402 -3 0
-160 -4 0
-161 -5 0
-162 -6 0
-280 -4 0
-281 -5 0
-282 -6 0
-397 -4 0
-398 -5 0
-399 -6 0
-475 -4 0
-476 -5 0
-477 -6 0
-535 -4 0
-536 -5 0
-537 -6 0
-547 -4 0
-548 -5 0
-549 -6 0
-553 -4 0
-554 -5 0
-555 -6 0
-10 -7 0
-11 -8 0
-12 -9 0
-160 -7 0
-161 -8 0
-162 -9 0
-175 -7 0
-176 -8 0
-177 -9 0
-307 -7 0
-308 -8 0
-309 -9 0
-313 -7 0
-314 -8 0
-315 -9 0
-466 -7 0
-467 -8 0
-468 -9 0
-148 -10 0
-149 -11 0
-150 -12 0
-559 -10 0
-560 -11 0
-561 -12 0
-52 -13 0
-53 -14 0
-54 -15 0
-64 -13 0
-65 -14 0
-66 -15 0
-151 -13 0
-152 -14 0
-153 -15 0
-202 -13 0
-203 -14 0
-204 -15 0
-388 -13 0
-389 -14 0
-390 -15 0
-391 -13 0
-392 -14 0
-393 -15 0
-499 -13 0
-500 -14 0
-501 -15 0
-586 -13 0
-587 -14 0
-588 -15 0
-343 -16 0
-344 -17 0
-345 -18 0
-403 -16 0
-404 -17 0
-405 -18 0
-520 -16 0
-521 -17 0
-522 -18 0
-526 -16 0
-527 -17 0
-528 -18 0
-388 -19 0
-389 -20 0
-390 -21 0
-97 -22 0
-98 -23 0
-99 -24 0
-145 -22 0
-146 -23 0
-147 -24 0
-316 -22 0
-317 -23 0
-318 -24 0
-325 -22 0
-326 -23 0
-327 -24 0
-439 -22 0
-440 -23 0
-441 -24 0
-556 -25 0
-557 -26 0
-558 -27 0
-250 -28 0
-251 -29 0
-252 -30 0
-274 -28 0
-275 -29 0
-276 -30 0
-376 -28 0
-377 -29 0
-378 -30 0
-79 -31 0
-80 -32 0
-81 -33 0
-106 -31 0
-107 -32 0
-108 -33 0
-235 -31 0
-236 -32 0
-237 -33 0
-265 -31 0
-266 -32 0
-267 -33 0
-370 -31 0
-371 -32 0
-372 -33 0
-505 -31 0
-506 -32 0
-507 -33 0
-538 -31 0
-539 -32 0
-540 -33 0
-169 -34 0
-170 -35 0
-171 -36 0
-193 -34 0
-194 -35 0
-195 -36 0
-217 -34 0
-218 -35 0
-219 -36 0
-313 -34 0
-314 -35 0
-315 -36 0
-442 -34 0
-443 -35 0
-444 -36 0
-121 -37 0
-122 -38 0
-123 -39 0
-133 -37 0
-134 -38 0
-135 -39 0
-211 -37 0
-212 -38 0
-213 -39 0
-229 -37 0
-230 -38 0
-231 -39 0
-382 -37 0
-383 -38 0
-384 -39 0
-469 -37 0
-470 -38 0
-471 -39 0
-532 -37 0
-533 -38 0
-534 -39 0
-415 -40 0
-416 -41 0
-417 -42 0
-214 -43 0
-215 -44 0
-216 -45 0
-238 -43 0
-239 -44 0
-240 -45 0
-274 -43 0
-275 -44 0
-276 -45 0
-493 -43 0
-494 -44 0
-495 -45 0
-136 -46 0
-137 -47 0
-138 -48 0
-271 -46 0
-272 -47 0
-273 -48 0
-334 -46 0
-335 -47 0
-336 -48 0
-427 -46 0
-428 -47 0
-429 -48 0
-568 -46 0
-569 -47 0
-570 -48 0
-76 -49 0
-77 -50 0
-78 -51 0
-127 -49 0
-128 -50 0
-129 -51 0
-232 -49 0
-233 -50 0
-234 -51 0
-478 -49 0
-479 -50 0
-480 -51 0
-166 -52 0
-167 -53 0
-168 -54 0
-199 -52 0
-200 -53 0
-201 -54 0
-274 -52 0
-275 -53 0
-276 -54 0
-517 -52 0
-518 -53 0
-519 -54 0
-79 -55 0
-80 -56 0
-81 -57 0
-208 -55 0
-209 -56 0
-210 -57 0
-337 -55 0
-338 -56 0
-339 -57 0
-100 -58 0
-101 -59 0
-102 -60 0
-124 -58 0
-125 -59 0
-126 -60 0
-400 -58 0
-401 -59 0
-402 -60 0
-412 -58 0
-413 -59 0
-414 -60 0
-529 -58 0
-530 -59 0
-531 -60 0
-580 -58 0
-581 -59 0
-582 -60 0
-589 -58 0
-590 -59 0
-591 -60 0
-241 -61 0
-242 -62 0
-243 -63 0
-304 -61 0
-305 -62 0
-306 -63 0
-343 -61 0
-344 -62 0
-345 -63 0
-115 -64 0
-116 -65 0
-117 -66 0
-211 -64 0
-212 -65 0
-213 -66 0
-337 -64 0
-338 -65 0
-339 -66 0
-397 -64 0
-398 -65 0
-399 -66 0
-448 -64 0
-449 -65 0
-450 -66 0
-115 -67 0
-116 -68 0
-117 -69 0
-193 -67 0
-194 -68 0
-195 -69 0
-229 -67 0
-230 -68 0
-231 -69 0
-265 -67 0
-266 -68 0
-267 -69 0
-454 -67 0
-455 -68 0
-456 -69 0
-520 -67 0
-521 -68 0
-522 -69 0
-139 -70 0
-140 -71 0
-141 -72 0
-247 -70 0
-248 -71 0
-249 -72 0
-253 -70 0
-254 -71 0
-255 -72 0
-256 -70 0
-257 -71 0
-258 -72 0
-460 -70 0
-461 -71 0
-462 -72 0
-100 -73 0
-101 -74 0
-102 -75 0
-178 -73 0
-179 -74 0
-180 -75 0
-274 -73 0
-275 -74 0
-276 -75 0
-475 -73 0
-476 -74 0
-477 -75 0
-85 -76 0
-86 -77 0
-87 -78 0
-139 -76 0
-140 -77 0
-141 -78 0
-160 -76 0
-161 -77 0
-162 -78 0
-223 -76 0
-224 -77 0
-225 -78 0
-259 -76 0
-260 -77 0
-261 -78 0
-412 -76 0
-413 -77 0
-414 -78 0
-475 -76 0
-476 -77 0
-477 -78 0
-376 -79 0
-377 -80 0
-378 -81 0
-520 -79 0
-521 -80 0
-522 -81 0
-595 -79 0
-596 -80 0
-597 -81 0
-397 -82 0
-398 -83 0
-399 -84 0
-442 -82 0
-443 -83 0
-444 -84 0
-475 -82 0
-476 -83 0
-477 -84 0
-571 -82 0
-572 -83 0
-573 -84 0
-586 -82 0
-587 -83 0
-588 -84 0
-88 -85 0
-89 -86 0
-90 -87 0
-151 -85 0
-152 -86 0
-153 -87 0
-409 -85 0
-410 -86 0
-411 -87 0
-451 -85 0
-452 -86 0
-453 -87 0
-454 -85 0
-455 -86 0
-456 -87 0
-478 -85 0
-479 -86 0
-480 -87 0
-508 -85 0
-509 -86 0
-510 -87 0
-97 -88 0
-98 -89 0
-99 -90 0
-238 -88 0
-239 -89 0
-240 -90 0
-262 -88 0
-263 -89 0
-264 -90 0
-364 -88 0
-365 -89 0
-366 -90 0
-451 -88 0
-452 -89 0
-453 -90 0
-124 -91 0
-125 -92 0
-126 -93 0
-379 -91 0
-380 -92 0
-381 -93 0
-472 -91 0
-473 -92 0
-474 -93 0
-214 -94 0
-215 -95 0
-216 -96 0
-586 -94 0
-587 -95 0
-588 -96 0
-598 -94 0
-599 -95 0
-600 -96 0
-190 -97 0
-191 -98 0
-192 -99 0
-262 -97 0
-263 -98 0
-264 -99 0
-391 -97 0
-392 -98 0
-393 -99 0
-478 -97 0
-479 -98 0
-480 -99 0
-598 -97 0
-599 -98 0
-600 -99 0
-169 -100 0
-170 -101 0
-171 -102 0
-322 -100 0
-323 -101 0
-324 -102 0
-394 -100 0
-395 -101 0
-396 -102 0
-403 -100 0
-404 -101 0
-405 -102 0
-457 -100 0
-458 -101 0
-459 -102 0
-223 -103 0
-224 -104 0
-225 -105 0
-325 -103 0
-326 -104 0
-327 -105 0
-340 -103 0
-341 -104 0
-342 -105 0
-379 -103 0
-380 -104 0
-381 -105 0
-394 -103 0
-395 -104 0
-396 -105 0
-121 -106 0
-122 -107 0
-123 -108 0
-151 -106 0
-152 -107 0
-153 -108 0
-589 -106 0
-590 -107 0
-591 -108 0
-133 -109 0
-134 -110 0
-135 -111 0
-202 -109 0
-203 -110 0
-204 -111 0
-442 -109 0
-443 -110 0
-444 -111 0
-496 -109 0
-497 -110 0
-498 -111 0
-541 -109 0
-542 -110 0
-543 -111 0
-235 -112 0
-236 -113 0
-237 -114 0
-244 -112 0
-245 -113 0
-246 -114 0
-271 -112 0
-272 -113 0
-273 -114 0
-286 -112 0
-287 -113 0
-288 -114 0
-427 -112 0
-428 -113 0
-429 -114 0
-157 -115 0
-158 -116 0
-159 -117 0
-322 -115 0
-323 -116 0
-324 -117 0
-568 -115 0
-569 -116 0
-570 -117 0
-136 -118 0
-137 -119 0
-138 -120 0
-145 -118 0
-146 -119 0
-147 -120 0
-382 -118 0
-383 -119 0
-384 -120 0
-418 -118 0
-419 -119 0
-420 -120 0
-505 -118 0
-506 -119 0
-507 -120 0
-508 -118 0
-509 -119 0
-510 -120 0
-292 -121 0
-293 -122 0
-294 -123 0
-343 -121 0
-344 -122 0
-345 -123 0
-355 -121 0
-356 -122 0
-357 -123 0
-457 -121 0
-458 -122 0
-459 -123 0
-481 -121 0
-482 -122 0
-483 -123 0
-304 -124 0
-305 -125 0
-306 -126 0
-472 -124 0
-473 -125 0
-474 -126 0
-580 -124 0
-581 -125 0
-582 -126 0
-457 -127 0
-458 -128 0
-459 -129 0
-460 -127 0
-461 -128 0
-462 -129 0
-499 -127 0
-500 -128 0
-501 -129 0
-511 -127 0
-512 -128 0
-513 -129 0
-199 -133 0
-200 -134 0
-201 -135 0
-202 -133 0
-203 -134 0
-204 -135 0
-214 -133 0
-215 -134 0
-216 -135 0
-343 -133 0
-344 -134 0
-345 -135 0
-403 -133 0
-404 -134 0
-405 -135 0
-517 -133 0
-518 -134 0
-519 -135 0
-214 -136 0
-215 -137 0
-216 -138 0
-355 -136 0
-356 -137 0
-357 -138 0
-451 -136 0
-452 -137 0
-453 -138 0
-535 -136 0
-536 -137 0
-537 -138 0
-544 -136 0
-545 -137 0
-546 -138 0
-235 -139 0
-236 -140 0
-237 -141 0
-580 -139 0
-581 -140 0
-582 -141 0
-289 -142 0
-290 -143 0
-291 -144 0
-181 -145 0
-182 -146 0
-183 -147 0
-280 -145 0
-281 -146 0
-282 -147 0
-289 -145 0
-290 -146 0
-291 -147 0
-415 -145 0
-416 -146 0
-417 -147 0
-424 -145 0
-425 -146 0
-426 -147 0
-187 -148 0
-188 -149 0
-189 -150 0
-367 -148 0
-368 -149 0
-369 -150 0
-421 -148 0
-422 -149 0
-423 -150 0
-250 -151 0
-251 -152 0
-252 -153 0
-367 -151 0
-368 -152 0
-369 -153 0
-385 -151 0
-386 -152 0
-387 -153 0
-529 -151 0
-530 -152 0
-531 -153 0
-196 -154 0
-197 -155 0
-198 -156 0
-376 -154 0
-377 -155 0
-378 -156 0
-499 -154 0
-500 -155 0
-501 -156 0
-598 -154 0
-599 -155 0
-600 -156 0
-499 -157 0
-500 -158 0
-501 -159 0
-265 -160 0
-266 -161 0
-267 -162 0
-334 -160 0
-335 -161 0
-336 -162 0
-415 -160 0
-416 -161 0
-417 -162 0
-493 -160 0
-494 -161 0
-495 -162 0
-172 -163 0
-173 -164 0
-174 -165 0
-547 -163 0
-548 -164 0
-549 -165 0
-241 -166 0
-242 -167 0
-243 -168 0
-268 -166 0
-269 -167 0
-270 -168 0
-334 -166 0
-335 -167 0
-336 -168 0
-487 -166 0
-488 -167 0
-489 -168 0
-172 -169 0
-173 -170 0
-174 -171 0
-283 -169 0
-284 -170 0
-285 -171 0
-388 -169 0
-389 -170 0
-390 -171 0
-565 -169 0
-566 -170 0
-567 -171 0
-301 -172 0
-302 -173 0
-303 -174 0
-328 -172 0
-329 -173 0
-330 -174 0
-469 -172 0
-470 -173 0
-471 -174 0
-256 -175 0
-257 -176 0
-258 -177 0
-283 -175 0
-284 -176 0
-285 -177 0
-373 -175 0
-374 -176 0
-375 -177 0
-430 -175 0
-431 -176 0
-432 -177 0
-445 -175 0
-446 -176 0
-447 -177 0
-244 -178 0
-245 -179 0
-246 -180 0
-304 -178 0
-305 -179 0
-306 -180 0
-367 -178 0
-368 -179 0
-369 -180 0
-388 -178 0
-389 -179 0
-390 -180 0
-421 -178 0
-422 -179 0
-423 -180 0
-505 -178 0
-506 -179 0
-507 -180 0
-568 -178 0
-569 -179 0
-570 -180 0
-325 -181 0
-326 -182 0
-327 -183 0
-463 -181 0
-464 -182 0
-465 -183 0
-544 -181 0
-545 -182 0
-546 -183 0
-202 -184 0
-203 -185 0
-204 -186 0
-280 -184 0
-281 -185 0
-282 -186 0
-298 -184 0
-299 -185 0
-300 -186 0
-358 -184 0
-359 -185 0
-360 -186 0
-523 -184 0
-524 -185 0
-525 -186 0
-526 -184 0
-527 -185 0
-528 -186 0
-268 -187 0
-269 -188 0
-270 -189 0
-292 -187 0
-293 -188 0
-294 -189 0
-205 -190 0
-206 -191 0
-207 -192 0
-238 -190 0
-239 -191 0
-240 -192 0
-532 -190 0
-533 -191 0
-534 -192 0
-562 -190 0
-563 -191 0
-564 -192 0
-337 -193 0
-338 -194 0
-339 -195 0
-400 -193 0
-401 -194 0
-402 -195 0
-442 -193 0
-443 -194 0
-444 -195 0
-469 -193 0
-470 -194 0
-471 -195 0
-574 -193 0
-575 -194 0
-576 -195 0
-427 -196 0
-428 -197 0
-429 -198 0
-484 -196 0
-485 -197 0
-486 -198 0
-289 -199 0
-290 -200 0
-291 -201 0
-421 -199 0
-422 -200 0
-423 -201 0
-442 -199 0
-443 -200 0
-444 -201 0
-550 -199 0
-551 -200 0
-552 -201 0
-304 -202 0
-305 -203 0
-306 -204 0
-481 -202 0
-482 -203 0
-483 -204 0
-511 -205 0
-512 -206 0
-513 -207 0
-292 -208 0
-293 -209 0
-294 -210 0
-358 -208 0
-359 -209 0
-360 -210 0
-400 -208 0
-401 -209 0
-402 -210 0
-466 -208 0
-467 -209 0
-468 -210 0
-292 -211 0
-293 -212 0
-294 -213 0
-382 -211 0
-383 -212 0
-384 -213 0
-412 -211 0
-413 -212 0
-414 -213 0
-538 -211 0
-539 -212 0
-540 -213 0
-577 -211 0
-578 -212 0
-579 -213 0
-595 -211 0
-596 -212 0
-597 -213 0
-373 -217 0
-374 -218 0
-375 -219 0
-406 -217 0
-407 -218 0
-408 -219 0
-529 -217 0
-530 -218 0
-531 -219 0
-562 -217 0
-563 -218 0
-564 -219 0
-268 -220 0
-269 -221 0
-270 -222 0
-352 -220 0
-353 -221 0
-354 -222 0
-382 -220 0
-383 -221 0
-384 -222 0
-250 -223 0
-251 -224 0
-252 -225 0
-256 -223 0
-257 -224 0
-258 -225 0
-259 -223 0
-260 -224 0
-261 -225 0
-457 -223 0
-458 -224 0
-459 -225 0
-550 -223 0
-551 -224 0
-552 -225 0
-376 -226 0
-377 -227 0
-378 -228 0
-403 -226 0
-404 -227 0
-405 -228 0
-511 -226 0
-512 -227 0
-513 -228 0
-391 -229 0
-392 -230 0
-393 -231 0
-490 -229 0
-491 -230 0
-492 -231 0
-505 -229 0
-506 -230 0
-507 -231 0
-511 -229 0
-512 -230 0
-513 -231 0
-301 -232 0
-302 -233 0
-303 -234 0
-412 -232 0
-413 -233 0
-414 -234 0
-469 -232 0
-470 -233 0
-471 -234 0
-487 -232 0
-488 -233 0
-489 -234 0
-259 -235 0
-260 -236 0
-261 -237 0
-310 -235 0
-311 -236 0
-312 -237 0
-421 -235 0
-422 -236 0
-423 -237 0
-472 -235 0
-473 -236 0
-474 -237 0
-292 -238 0
-293 -239 0
-294 -240 0
-352 -238 0
-353 -239 0
-354 -240 0
-442 -238 0
-443 -239 0
-444 -240 0
-349 -241 0
-350 -242 0
-351 -243 0
-397 -241 0
-398 -242 0
-399 -243 0
-430 -241 0
-431 -242 0
-432 -243 0
-433 -241 0
-434 -242 0
-435 -243 0
-253 -244 0
-254 -245 0
-255 -246 0
-334 -244 0
-335 -245 0
-336 -246 0
-427 -244 0
-428 -245 0
-429 -246 0
-283 -247 0
-284 -248 0
-285 -249 0
-376 -247 0
-377 -248 0
-378 -249 0
-490 -247 0
-491 -248 0
-492 -249 0
-526 -247 0
-527 -248 0
-528 -249 0
-397 -250 0
-398 -251 0
-399 -252 0
-454 -253 0
-455 -254 0
-456 -255 0
-502 -253 0
-503 -254 0
-504 -255 0
-472 -256 0
-473 -257 0
-474 -258 0
-274 -259 0
-275 -260 0
-276 -261 0
-538 -259 0
-539 -260 0
-540 -261 0
-445 -262 0
-446 -263 0
-447 -264 0
-583 -262 0
-584 -263 0
-585 -264 0
-382 -265 0
-383 -266 0
-384 -267 0
-583 -265 0
-584 -266 0
-585 -267 0
-388 -268 0
-389 -269 0
-390 -270 0
-337 -271 0
-338 -272 0
-339 -273 0
-421 -271 0
-422 -272 0
-423 -273 0
-550 -271 0
-551 -272 0
-552 -273 0
-361 -274 0
-362 -275 0
-363 -276 0
-439 -274 0
-440 -275 0
-441 -276 0
-313 -277 0
-314 -278 0
-315 -279 0
-319 -277 0
-320 -278 0
-321 -279 0
-406 -280 0
-407 -281 0
-408 -282 0
-418 -280 0
-419 -281 0
-420 -282 0
-394 -283 0
-395 -284 0
-396 -285 0
-481 -283 0
-482 -284 0
-483 -285 0
-565 -283 0
-566 -284 0
-567 -285 0
-463 -289 0
-464 -290 0
-465 -291 0
-484 -289 0
-485 -290 0
-486 -291 0
-532 -289 0
-533 -290 0
-534 -291 0
-490 -292 0
-491 -293 0
-492 -294 0
-346 -295 0
-347 -296 0
-348 -297 0
-562 -295 0
-563 -296 0
-564 -297 0
-406 -298 0
-407 -299 0
-408 -300 0
-433 -301 0
-434 -302 0
-435 -303 0
-472 -301 0
-473 -302 0
-474 -303 0
-475 -301 0
-476 -302 0
-477 -303 0
-523 -304 0
-524 -305 0
-525 -306 0
-361 -307 0
-362 -308 0
-363 -309 0
-382 -307 0
-383 -308 0
-384 -309 0
-484 -307 0
-485 -308 0
-486 -309 0
-478 -310 0
-479 -311 0
-480 -312 0
-523 -310 0
-524 -311 0
-525 -312 0
-586 -310 0
-587 -311 0
-588 -312 0
-337 -313 0
-338 -314 0
-339 -315 0
-466 -313 0
-467 -314 0
-468 -315 0
-472 -313 0
-473 -314 0
-474 -315 0
-361 -319 0
-362 -320 0
-363 -321 0
-583 -319 0
-584 -320 0
-585 -321 0
-340 -322 0
-341 -323 0
-342 -324 0
-550 -322 0
-551 -323 0
-552 -324 0
-373 -328 0
-374 -329 0
-375 -330 0
-478 -328 0
-479 -329 0
-480 -330 0
-568 -328 0
-569 -329 0
-570 -330 0
-475 -331 0
-476 -332 0
-477 -333 0
-535 -331 0
-536 -332 0
-537 -333 0
-571 -331 0
-572 -332 0
-573 -333 0
-403 -334 0
-404 -335 0
-405 -336 0
-406 -334 0
-407 -335 0
-408 -336 0
-589 -334 0
-590 -335 0
-591 -336 0
-349 -337 0
-350 -338 0
-351 -339 0
-424 -340 0
-425 -341 0
-426 -342 0
-493 -340 0
-494 -341 0
-495 -342 0
-529 -340 0
-530 -341 0
-531 -342 0
-538 -340 0
-539 -341 0
-540 -342 0
-577 -343 0
-578 -344 0
-579 -345 0
-379 -346 0
-380 -347 0
-381 -348 0
-475 -346 0
-476 -347 0
-477 -348 0
-484 -349 0
-485 -350 0
-486 -351 0
-436 -352 0
-437 -353 0
-438 -354 0
-478 -352 0
-479 -353 0
-480 -354 0
-544 -352 0
-545 -353 0
-546 -354 0
-388 -355 0
-389 -356 0
-390 -357 0
-487 -355 0
-488 -356 0
-489 -357 0
-586 -355 0
-587 -356 0
-588 -357 0
-499 -358 0
-500 -359 0
-501 -360 0
-478 -361 0
-479 -362 0
-480 -363 0
-598 -361 0
-599 -362 0
-600 -363 0
-526 -364 0
-527 -365 0
-528 -366 0
-556 -367 0
-557 -368 0
-558 -369 0
-466 -370 0
-467 -371 0
-468 -372 0
-559 -370 0
-560 -371 0
-561 -372 0
-526 -373 0
-527 -374 0
-528 -375 0
-385 -376 0
-386 -377 0
-387 -378 0
-409 -376 0
-410 -377 0
-411 -378 0
-466 -376 0
-467 -377 0
-468 -378 0
-490 -379 0
-491 -380 0
-492 -381 0
-526 -382 0
-527 -383 0
-528 -384 0
-592 -382 0
-593 -383 0
-594 -384 0
-454 -385 0
-455 -386 0
-456 -387 0
-460 -388 0
-461 -389 0
-462 -390 0
-433 -391 0
-434 -392 0
-435 -393 0
-496 -391 0
-497 -392 0
-498 -393 0
-547 -391 0
-548 -392 0
-549 -393 0
-493 -394 0
-494 -395 0
-495 -396 0
-586 -397 0
-587 -398 0
-588 -399 0
-484 -400 0
-485 -401 0
-486 -402 0
-424 -403 0
-425 -404 0
-426 -405 0
-565 -403 0
-566 -404 0
-567 -405 0
-577 -406 0
-578 -407 0
-579 -408 0
-460 -409 0
-461 -410 0
-462 -411 0
-415 -412 0
-416 -413 0
-417 -414 0
-490 -412 0
-491 -413 0
-492 -414 0
-586 -412 0
-587 -413 0
-588 -414 0
-448 -415 0
-449 -416 0
-450 -417 0
-451 -415 0
-452 -416 0
-453 -417 0
-598 -421 0
-599 -422 0
-600 -423 0
-451 -424 0
-452 -425 0
-453 -426 0
-541 -424 0
-542 -425 0
-543 -426 0
-439 -427 0
-440 -428 0
-441 -429 0
-526 -427 0
-527 -428 0
-528 -429 0
-445 -433 0
-446 -434 0
-447 -435 0
-469 -436 0
-470 -437 0
-471 -438 0
-508 -436 0
-509 -437 0
-510 -438 0
-508 -439 0
-509 -440 0
-510 -441 0
-511 -439 0
-512 -440 0
-513 -441 0
-538 -439 0
-539 -440 0
-540 -441 0
-577 -439 0
-578 -440 0
-579 -441 0
-595 -442 0
-596 -443 0
-597 -444 0
-511 -445 0
-512 -446 0
-513 -447 0
-544 -448 0
-545 -449 0
-546 -450 0
-556 -451 0
-557 -452 0
-558 -453 0
-583 -451 0
-584 -452 0
-585 -453 0
-517 -454 0
-518 -455 0
-519 -456 0
-586 -457 0
-587 -458 0
-588 -459 0
-529 -460 0
-530 -461 0
-531 -462 0
-520 -469 0
-521 -470 0
-522 -471 0
-532 -469 0
-533 -470 0
-534 -471 0
-538 -472 0
-539 -473 0
-540 -474 0
-529 -475 0
-530 -476 0
-531 -477 0
-550 -478 0
-551 -479 0
-552 -480 0
-496 -484 0
-497 -485 0
-498 -486 0
-592 -490 0
-593 -491 0
-594 -492 0
-523 -499 0
-524 -500 0
-525 -501 0
-547 -499 0
-548 -500 0
-549 -501 0
-505 -502 0
-506 -503 0
-507 -504 0
-517 -502 0
-518 -503 0
-519 -504 0
-541 -508 0
-542 -509 0
-543 -510 0
-562 -523 0
-563 -524 0
-564 -525 0
-538 -535 0
-539 -536 0
-540 -537 0
-589 -535 0
-590 -536 0
-591 -537 0
-580 -541 0
-581 -542 0
-582 -543 0
-592 -541 0
-593 -542 0
-594 -543 0
-568 -550 0
-569 -551 0
-570 -552 0
-568 -556 0
-569 -557 0
-570 -558 0
-583 -556 0
-584 -557 0
-585 -558 0
-577 -562 0
-578 -563 0
-579 -564 0
-583 -568 0
-584 -569 0
-585 -570 0
-595 -571 0
-596 -572 0
-597 -573 0
-592 -574 0
-593 -575 0
-594 -576 0
